1 -1 2 0
1 -1 -3 0
1 -1 4 0
1 -1 -5 0
1 -2 -3 0
1 -2 4 0
1 2 1 0
1 -2 6 0
1 7 8 0
1 7 -9 0
1 7 10 0
1 -8 11 0
1 8 -3 0
1 -8 -9 0
1 -8 -10 0
1 8 -7 0
1 8 5 0
1 4 -12 0
1 4 13 0
1 -4 -8 0
1 4 -2 0
1 4 -14 0
1 6 13 0
1 -6 -14 0
1 -6 7 0
1 -6 -1 0
1 -3 15 0
1 -3 2 0
1 -3 -16 0
1 -3 -17 0
1 -3 7 0
1 -3 1 0
1 3 5 0
1 -5 -18 0
1 -5 -3 0
1 5 -19 0
1 -5 -20 0
1 -14 -21 0
1 14 13 0
1 14 9 0
1 14 6 0
1 -13 -15 0
1 13 6 0
1 22 23 0
1 -22 -4 0
1 22 -10 0
1 -22 24 0
1 -25 -11 0
1 -25 -21 0
1 -25 -18 0
1 -25 22 0
1 -25 24 0
1 25 -6 0
1 -10 26 0
1 -10 27 0
1 -10 21 0
1 10 -25 0
1 -10 -13 0
1 -10 28 0
1 -10 -29 0
1 -10 22 0
1 -10 14 0
1 10 -7 0
1 -21 26 0
1 21 -27 0
1 21 13 0
1 -21 29 0
1 21 -30 0
1 -21 10 0
1 21 -22 0
1 -9 -11 0
1 -9 31 0
1 -9 -12 0
1 -9 25 0
1 -9 13 0
1 -9 22 0
1 9 14 0
1 9 -7 0
1 -9 -32 0
1 11 31 0
1 11 12 0
1 -11 -25 0
1 -11 13 0
1 11 -17 0
1 11 22 0
1 -11 14 0
1 11 32 0
1 30 27 0
1 -30 -21 0
1 -30 -23 0
1 -30 -33 0
1 30 -10 0
1 30 17 0
1 30 34 0
1 27 21 0
1 -27 -23 0
1 -27 -33 0
1 -27 30 0
1 27 -34 0
1 -27 24 0
1 -29 -26 0
1 -29 21 0
1 -29 23 0
1 -29 33 0
1 29 -35 0
1 -26 31 0
1 26 10 0
1 26 34 0
1 24 -27 0
1 24 25 0
1 24 33 0
1 -24 -30 0
1 -24 36 0
1 -33 27 0
1 -33 25 0
1 33 37 0
1 -33 -38 0
1 -33 22 0
1 33 36 0
1 -34 26 0
1 -34 25 0
1 34 -23 0
1 34 -38 0
1 -34 28 0
1 -34 30 0
1 -34 22 0
1 -34 -36 0
1 -34 -39 0
1 -34 -32 0
1 -23 -26 0
1 23 -25 0
1 23 38 0
1 23 -29 0
1 23 30 0
1 23 -32 0
1 -40 -41 0
1 40 42 0
1 -40 -43 0
1 -40 44 0
1 41 -45 0
1 -41 -46 0
1 41 -2 0
1 41 47 0
1 41 43 0
1 -48 49 0
1 48 -50 0
1 -49 -46 0
1 49 -51 0
1 49 -43 0
1 -49 52 0
1 -49 48 0
1 -46 53 0
1 -46 -54 0
1 -46 -15 0
1 -46 -55 0
1 -46 48 0
1 -43 -46 0
1 43 -53 0
1 -43 -18 0
1 43 -15 0
1 43 -41 0
1 43 56 0
1 -43 -55 0
1 -43 48 0
1 43 -40 0
1 45 -57 0
1 -45 58 0
1 45 -49 0
1 -45 -41 0
1 -45 -42 0
1 -45 -59 0
1 -45 -40 0
1 42 45 0
1 -42 -53 0
1 -42 49 0
1 -42 -41 0
1 42 -60 0
1 42 61 0
1 55 15 0
1 55 3 0
1 55 62 0
1 15 63 0
1 -15 -3 0
1 15 -43 0
1 -15 -5 0
1 19 -46 0
1 -19 -64 0
1 -19 43 0
1 19 -62 0
1 18 -62 0
1 18 3 0
1 -18 -19 0
1 -18 65 0
1 -66 -31 0
1 66 -12 0
1 -66 -15 0
1 66 -35 0
1 66 17 0
1 66 -19 0
1 -66 48 0
1 -62 31 0
1 62 12 0
1 -62 18 0
1 -62 -15 0
1 62 -66 0
1 62 67 0
1 -62 35 0
1 -62 19 0
1 62 68 0
1 62 48 0
1 -69 70 0
1 69 -15 0
1 -69 52 0
1 69 19 0
1 -69 55 0
1 69 48 0
1 -52 71 0
1 52 18 0
1 52 -72 0
1 -52 -56 0
1 -52 55 0
1 17 -11 0
1 -17 -12 0
1 17 -66 0
1 -17 64 0
1 17 4 0
1 17 -56 0
1 -17 62 0
1 17 73 0
1 17 65 0
1 17 6 0
1 -12 -27 0
1 12 -66 0
1 12 -64 0
1 -12 -4 0
1 12 65 0
1 12 5 0
1 -35 -74 0
1 35 11 0
1 -35 66 0
1 35 -16 0
1 35 29 0
1 -35 72 0
1 -35 -73 0
1 -35 -65 0
1 31 26 0
1 -31 -11 0
1 31 64 0
1 31 -16 0
1 -31 75 0
1 -31 -9 0
1 31 -35 0
1 31 -62 0
1 -31 73 0
1 -31 -65 0
1 -31 20 0
1 64 76 0
1 -64 -77 0
1 64 -28 0
1 -64 35 0
1 64 78 0
1 -64 32 0
1 -65 12 0
1 -65 -18 0
1 -65 79 0
1 -65 -80 0
1 -65 35 0
1 65 19 0
1 65 39 0
1 -65 -32 0
1 81 18 0
1 -81 -82 0
1 -81 -76 0
1 81 -67 0
1 -81 17 0
1 73 83 0
1 -73 -12 0
1 -73 81 0
1 -73 67 0
1 73 35 0
1 -73 -17 0
1 -73 19 0
1 -73 84 0
1 28 -64 0
1 28 67 0
1 28 75 0
1 -28 -34 0
1 -28 32 0
1 -32 -83 0
1 -32 -64 0
1 32 75 0
1 -79 -74 0
1 79 85 0
1 79 -23 0
1 79 -75 0
1 39 85 0
1 39 16 0
1 39 -75 0
1 39 86 0
1 -39 34 0
1 75 -74 0
1 75 31 0
1 -75 38 0
1 -75 -79 0
1 75 4 0
1 -75 -35 0
1 75 -36 0
1 -75 39 0
1 74 -31 0
1 -74 -28 0
1 74 -75 0
1 74 -35 0
1 -74 -36 0
1 74 39 0
1 16 87 0
1 16 -3 0
1 16 -28 0
1 -16 -88 0
1 16 20 0
1 -16 32 0
1 -20 87 0
1 -20 -89 0
1 -20 16 0
1 -20 -90 0
1 20 78 0
1 -20 32 0
1 -38 -74 0
1 -38 -23 0
1 -38 -33 0
1 38 -76 0
1 38 75 0
1 -38 -86 0
1 38 34 0
1 38 24 0
1 -38 -36 0
1 36 -74 0
1 36 -91 0
1 -36 92 0
1 -36 34 0
1 36 -24 0
1 36 78 0
1 -93 -74 0
1 93 91 0
1 93 94 0
1 -93 -37 0
1 93 -86 0
1 94 85 0
1 94 93 0
1 94 75 0
1 -94 -92 0
1 -94 -95 0
1 -86 -85 0
1 86 96 0
1 -86 93 0
1 -86 -79 0
1 -86 -97 0
1 86 36 0
1 -85 -21 0
1 85 -98 0
1 85 -99 0
1 -85 100 0
1 85 93 0
1 -85 38 0
1 85 101 0
1 85 -102 0
1 85 94 0
1 85 -39 0
1 92 91 0
1 92 -87 0
1 -92 93 0
1 92 38 0
1 92 -79 0
1 -92 -103 0
1 -92 -104 0
1 -92 -90 0
1 -92 -36 0
1 91 -105 0
1 -91 79 0
1 91 94 0
1 91 36 0
1 -96 37 0
1 96 -87 0
1 -96 -102 0
1 96 -95 0
1 -102 -85 0
1 102 -106 0
1 102 86 0
1 -102 107 0
1 -102 95 0
1 -100 -85 0
1 100 108 0
1 100 -86 0
1 -101 100 0
1 101 -86 0
1 -101 -104 0
1 -95 -100 0
1 -95 -96 0
1 95 37 0
1 95 -101 0
1 95 102 0
1 95 94 0
1 -37 109 0
1 -37 100 0
1 -37 -33 0
1 37 93 0
1 37 110 0
1 -37 -102 0
1 -37 94 0
1 -37 -95 0
1 107 98 0
1 -107 -96 0
1 107 110 0
1 -107 -111 0
1 -107 103 0
1 -107 -101 0
1 -107 -94 0
1 106 109 0
1 -106 112 0
1 -106 93 0
1 -106 101 0
1 106 -102 0
1 -44 -47 0
1 44 -113 0
1 44 -114 0
1 -44 40 0
1 47 -115 0
1 47 44 0
1 50 116 0
1 -50 115 0
1 50 -117 0
1 -50 51 0
1 -50 -113 0
1 50 -118 0
1 50 -48 0
1 -50 119 0
1 51 116 0
1 51 115 0
1 51 -117 0
1 -51 -49 0
1 51 120 0
1 51 119 0
1 -51 -118 0
1 -51 -50 0
1 114 -58 0
1 114 -115 0
1 -114 -47 0
1 114 -50 0
1 115 -114 0
1 -115 58 0
1 -115 -121 0
1 -115 63 0
1 -115 47 0
1 -115 -59 0
1 -115 -61 0
1 115 -50 0
1 -113 51 0
1 113 -44 0
1 116 122 0
1 116 -51 0
1 -116 -47 0
1 116 113 0
1 61 45 0
1 61 -115 0
1 -61 120 0
1 -61 114 0
1 -61 118 0
1 63 15 0
1 -63 -120 0
1 -63 118 0
1 63 -42 0
1 63 -114 0
1 63 -119 0
1 -59 120 0
1 59 -118 0
1 58 115 0
1 58 59 0
1 -58 118 0
1 58 119 0
1 58 -123 0
1 -119 124 0
1 119 71 0
1 119 53 0
1 119 -58 0
1 -119 -63 0
1 -119 51 0
1 119 125 0
1 -119 -56 0
1 -119 59 0
1 -119 61 0
1 -120 -124 0
1 120 -71 0
1 120 53 0
1 120 -63 0
1 120 -126 0
1 -120 -72 0
1 -120 -56 0
1 -120 -119 0
1 120 61 0
1 118 63 0
1 118 59 0
1 -118 -61 0
1 118 -127 0
1 118 50 0
1 -117 124 0
1 -117 63 0
1 -117 128 0
1 -117 -51 0
1 -117 118 0
1 -117 61 0
1 56 129 0
1 56 -45 0
1 56 46 0
1 -56 -120 0
1 -56 -52 0
1 -56 -17 0
1 -53 129 0
1 53 12 0
1 -53 46 0
1 53 130 0
1 -53 -131 0
1 53 43 0
1 53 119 0
1 53 -123 0
1 -72 129 0
1 72 -71 0
1 72 -57 0
1 72 -54 0
1 -72 -130 0
1 -72 131 0
1 -72 -60 0
1 72 -35 0
1 72 -52 0
1 -72 -119 0
1 -72 -123 0
1 71 129 0
1 -71 -31 0
1 71 130 0
1 71 -131 0
1 -71 52 0
1 -71 132 0
1 -71 -119 0
1 71 -123 0
1 -129 -71 0
1 -129 -56 0
1 -129 59 0
1 131 71 0
1 -131 53 0
1 131 58 0
1 131 133 0
1 -131 -67 0
1 -131 -72 0
1 123 124 0
1 -123 -71 0
1 123 -53 0
1 -123 130 0
1 123 -134 0
1 -123 56 0
1 123 -59 0
1 123 135 0
1 130 53 0
1 130 -58 0
1 130 134 0
1 -130 125 0
1 -130 72 0
1 -130 -56 0
1 -130 -59 0
1 130 -135 0
1 130 123 0
1 67 -83 0
1 67 69 0
1 67 131 0
1 -67 132 0
1 67 73 0
1 83 124 0
1 83 -69 0
1 -83 66 0
1 -83 -131 0
1 83 67 0
1 83 60 0
1 -83 -52 0
1 -133 -129 0
1 133 54 0
1 133 81 0
1 133 -79 0
1 -133 134 0
1 -133 136 0
1 133 68 0
1 133 -73 0
1 -137 57 0
1 -137 -54 0
1 137 -70 0
1 -137 -138 0
1 -137 -133 0
1 -137 -60 0
1 137 -139 0
1 54 -71 0
1 54 140 0
1 -54 -76 0
1 54 -133 0
1 54 67 0
1 -54 -141 0
1 -54 88 0
1 -54 78 0
1 -54 137 0
1 132 -83 0
1 132 54 0
1 -132 76 0
1 -132 -142 0
1 132 141 0
1 -132 78 0
1 57 45 0
1 57 -143 0
1 57 -144 0
1 -57 133 0
1 -57 141 0
1 60 83 0
1 60 -71 0
1 60 -144 0
1 -60 145 0
1 60 67 0
1 60 72 0
1 76 54 0
1 -76 138 0
1 -76 38 0
1 76 -78 0
1 78 138 0
1 78 -76 0
1 78 136 0
1 78 73 0
1 -78 -135 0
1 89 84 0
1 89 70 0
1 89 93 0
1 89 -82 0
1 -89 -144 0
1 -89 -77 0
1 -89 136 0
1 89 -80 0
1 -88 -89 0
1 88 132 0
1 88 136 0
1 -88 -20 0
1 -138 68 0
1 -138 146 0
1 138 108 0
1 138 66 0
1 -138 87 0
1 138 -147 0
1 -138 -89 0
1 -138 -133 0
1 138 148 0
1 138 -104 0
1 -138 -90 0
1 138 -137 0
1 -68 146 0
1 -68 108 0
1 68 -87 0
1 68 148 0
1 68 137 0
1 -70 69 0
1 70 89 0
1 70 141 0
1 70 88 0
1 -70 -137 0
1 -136 -149 0
1 -136 70 0
1 -136 143 0
1 -136 76 0
1 -136 52 0
1 136 88 0
1 136 -137 0
1 -87 -68 0
1 87 -96 0
1 -87 -138 0
1 -87 -143 0
1 87 16 0
1 87 92 0
1 87 84 0
1 87 20 0
1 90 91 0
1 90 -87 0
1 90 -138 0
1 90 77 0
1 90 16 0
1 90 75 0
1 -90 -68 0
1 -90 -141 0
1 -90 84 0
1 -90 20 0
1 -108 -100 0
1 -108 150 0
1 108 82 0
1 108 -151 0
1 -108 -104 0
1 108 68 0
1 -108 84 0
1 -108 -80 0
1 108 152 0
1 104 -108 0
1 104 -138 0
1 -104 -153 0
1 104 -151 0
1 -104 84 0
1 104 80 0
1 77 -89 0
1 -77 -90 0
1 77 80 0
1 80 98 0
1 -80 89 0
1 80 77 0
1 80 -111 0
1 80 90 0
1 -80 -88 0
1 82 -108 0
1 -82 -84 0
1 82 89 0
1 -82 -148 0
1 -82 88 0
1 -84 -154 0
1 -84 -108 0
1 -84 89 0
1 -84 155 0
1 84 156 0
1 84 148 0
1 -84 -104 0
1 -84 -73 0
1 84 -88 0
1 98 157 0
1 98 106 0
1 -98 151 0
1 98 -80 0
1 -103 -98 0
1 103 -85 0
1 -103 153 0
1 -103 -151 0
1 -103 86 0
1 103 80 0
1 -112 157 0
1 -112 99 0
1 -112 -106 0
1 -112 -151 0
1 -112 -80 0
1 -112 152 0
1 -111 105 0
1 111 99 0
1 111 77 0
1 111 153 0
1 111 -156 0
1 -111 151 0
1 -111 -158 0
1 -111 107 0
1 -111 -80 0
1 -111 152 0
1 -151 -109 0
1 151 -157 0
1 -151 -112 0
1 -151 -159 0
1 151 -160 0
1 151 -110 0
1 151 -75 0
1 157 109 0
1 -157 -108 0
1 -157 -160 0
1 157 110 0
1 157 111 0
1 -157 -151 0
1 157 104 0
1 -153 -154 0
1 -153 98 0
1 -153 155 0
1 -153 -161 0
1 -153 152 0
1 -153 -162 0
1 -152 -108 0
1 152 163 0
1 -152 155 0
1 -152 111 0
1 -152 161 0
1 -152 -20 0
1 109 157 0
1 -109 110 0
1 -110 -109 0
1 110 37 0
1 110 155 0
1 110 151 0
1 -110 158 0
1 -110 97 0
1 110 107 0
1 -164 -165 0
1 164 -151 0
1 -164 -97 0
1 -164 -166 0
1 -160 105 0
1 160 -165 0
1 -160 -163 0
1 -160 97 0
1 160 -166 0
1 -160 -164 0
1 -97 112 0
1 -97 99 0
1 -97 167 0
1 97 168 0
1 97 169 0
1 97 164 0
1 -99 112 0
1 -99 -85 0
1 -99 -170 0
1 99 167 0
1 -99 160 0
1 -99 169 0
1 158 171 0
1 158 -111 0
1 105 -112 0
1 105 171 0
1 -105 -160 0
1 -105 -111 0
1 -105 158 0
1 105 172 0
1 105 -164 0
1 169 173 0
1 -169 -165 0
1 169 166 0
1 -169 -161 0
1 167 99 0
1 167 165 0
1 -167 -159 0
1 167 -97 0
1 -167 -169 0
1 -168 170 0
1 -168 165 0
1 -168 174 0
1 -168 -172 0
1 -170 -97 0
1 -174 -170 0
1 -174 167 0
1 174 -160 0
1 -165 -37 0
1 -165 170 0
1 -165 167 0
1 -165 169 0
1 -166 170 0
1 -166 167 0
1 -166 -160 0
1 166 -168 0
1 -166 -169 0
1 173 -106 0
1 173 -160 0
1 -173 168 0
1 125 124 0
1 125 119 0
1 124 117 0
1 -124 125 0
1 124 118 0
1 124 119 0
1 -134 -128 0
1 -134 -126 0
1 134 130 0
1 134 123 0
1 139 -130 0
1 -139 -175 0
1 -139 176 0
1 -139 -127 0
1 176 124 0
1 -176 177 0
1 176 135 0
1 -121 -178 0
1 121 -134 0
1 121 177 0
1 -121 135 0
1 -175 -124 0
1 175 113 0
1 175 -179 0
1 122 116 0
1 122 -180 0
1 -122 134 0
1 122 125 0
1 122 -175 0
1 -122 139 0
1 145 57 0
1 -145 -128 0
1 -145 126 0
1 -145 -130 0
1 -145 176 0
1 135 129 0
1 135 -123 0
1 135 57 0
1 -135 -128 0
1 135 -126 0
1 135 145 0
1 144 -121 0
1 -144 -128 0
1 144 -181 0
1 -144 -60 0
1 -144 182 0
1 -144 183 0
1 -177 184 0
1 -177 57 0
1 177 -128 0
1 -177 144 0
1 177 185 0
1 177 -60 0
1 -177 182 0
1 182 143 0
1 -182 -144 0
1 182 145 0
1 182 177 0
1 182 119 0
1 -182 135 0
1 182 -186 0
1 182 139 0
1 126 120 0
1 126 -144 0
1 126 -187 0
1 -126 134 0
1 126 188 0
1 -126 -141 0
1 -126 -177 0
1 -126 -182 0
1 -126 139 0
1 -127 -189 0
1 -127 134 0
1 -127 -188 0
1 -127 -177 0
1 127 190 0
1 128 189 0
1 128 117 0
1 -128 145 0
1 -128 127 0
1 143 -87 0
1 -143 -181 0
1 143 -141 0
1 -141 -57 0
1 -141 70 0
1 141 -143 0
1 -141 -181 0
1 141 -185 0
1 -141 132 0
1 141 182 0
1 141 -183 0
1 -150 -191 0
1 -150 108 0
1 150 -192 0
1 -150 -136 0
1 150 -182 0
1 -150 -183 0
1 193 -184 0
1 193 -70 0
1 -193 150 0
1 -193 -126 0
1 -193 -185 0
1 193 142 0
1 -193 -136 0
1 -193 104 0
1 -184 194 0
1 -184 -195 0
1 -184 196 0
1 184 146 0
1 184 -150 0
1 -184 193 0
1 185 184 0
1 -185 -194 0
1 -185 -195 0
1 -185 146 0
1 -185 -150 0
1 -185 -143 0
1 -185 -131 0
1 -185 197 0
1 -183 -194 0
1 183 -150 0
1 -183 -144 0
1 183 -181 0
1 183 -197 0
1 183 -193 0
1 -183 141 0
1 183 177 0
1 183 -123 0
1 181 -144 0
1 -181 -197 0
1 -181 193 0
1 181 -183 0
1 146 184 0
1 -146 -98 0
1 146 -70 0
1 -146 140 0
1 -146 -138 0
1 -146 -192 0
1 -146 -148 0
1 -146 142 0
1 148 -184 0
1 148 -191 0
1 148 -138 0
1 148 82 0
1 -148 185 0
1 148 -103 0
1 -148 -188 0
1 -148 136 0
1 148 -68 0
1 -195 112 0
1 195 -191 0
1 195 -82 0
1 -195 185 0
1 -195 156 0
1 -195 -142 0
1 -156 -191 0
1 156 -140 0
1 -156 -198 0
1 156 -82 0
1 -156 -185 0
1 -156 111 0
1 -156 -192 0
1 -156 -149 0
1 -156 -84 0
1 -140 146 0
1 -140 54 0
1 -140 -150 0
1 140 -199 0
1 140 -142 0
1 -140 193 0
1 -140 -162 0
1 -142 140 0
1 -142 -148 0
1 -142 -132 0
1 -142 162 0
1 191 -194 0
1 191 -57 0
1 191 -146 0
1 191 199 0
1 191 -200 0
1 191 -197 0
1 191 156 0
1 191 193 0
1 192 -201 0
1 192 195 0
1 192 -200 0
1 192 -197 0
1 192 -193 0
1 -154 -194 0
1 154 82 0
1 154 -77 0
1 154 155 0
1 -154 -153 0
1 -154 142 0
1 154 -202 0
1 154 80 0
1 -154 -152 0
1 -155 140 0
1 -155 198 0
1 155 -110 0
1 155 -153 0
1 -155 -197 0
1 155 -149 0
1 155 80 0
1 -162 -140 0
1 -162 147 0
1 162 -203 0
1 -162 -163 0
1 -162 142 0
1 162 202 0
1 162 -204 0
1 162 -205 0
1 162 164 0
1 163 198 0
1 -163 162 0
1 163 -160 0
1 -163 200 0
1 163 -153 0
1 163 142 0
1 163 149 0
1 -163 -202 0
1 163 -204 0
1 -163 -152 0
1 -147 -171 0
1 -147 159 0
1 147 -156 0
1 -147 172 0
1 -202 -171 0
1 -202 159 0
1 202 -163 0
1 -202 -155 0
1 -202 156 0
1 202 68 0
1 -198 -195 0
1 198 -163 0
1 198 155 0
1 -198 -149 0
1 -198 206 0
1 -198 -162 0
1 149 -195 0
1 -149 -199 0
1 -149 163 0
1 -149 -206 0
1 149 -162 0
1 161 -105 0
1 161 207 0
1 161 -158 0
1 161 202 0
1 161 -204 0
1 161 -205 0
1 161 -152 0
1 159 105 0
1 159 -203 0
1 159 199 0
1 -159 -207 0
1 -159 151 0
1 -159 -204 0
1 159 161 0
1 -172 171 0
1 172 147 0
1 -172 207 0
1 -172 -158 0
1 172 206 0
1 -172 205 0
1 -171 -208 0
1 171 203 0
1 -207 -77 0
1 207 163 0
1 207 -205 0
1 207 -172 0
1 205 161 0
1 -203 171 0
1 203 159 0
1 203 -163 0
1 204 159 0
1 204 203 0
1 -204 -172 0
1 -204 -161 0
1 204 -162 0
1 -189 146 0
1 -189 178 0
1 189 128 0
1 -189 188 0
1 189 -179 0
1 -189 -209 0
1 -189 -182 0
1 -188 -189 0
1 -188 148 0
1 -188 182 0
1 210 195 0
1 210 -211 0
1 210 -187 0
1 -210 181 0
1 210 209 0
1 210 -190 0
1 210 186 0
1 -210 183 0
1 212 -187 0
1 -212 -156 0
1 212 -209 0
1 -212 183 0
1 -209 197 0
1 209 -188 0
1 178 -201 0
1 178 -121 0
1 178 -200 0
1 178 197 0
1 178 209 0
1 -179 189 0
1 -179 180 0
1 -179 -188 0
1 180 -189 0
1 -180 -122 0
1 -180 212 0
1 -194 -154 0
1 194 -191 0
1 194 -211 0
1 -194 187 0
1 194 197 0
1 -194 192 0
1 194 -190 0
1 194 -183 0
1 -197 -184 0
1 -197 -178 0
1 -197 -187 0
1 197 185 0
1 -197 -192 0
1 -197 190 0
1 -201 -213 0
1 201 -196 0
1 201 191 0
1 -201 187 0
1 -201 214 0
1 201 192 0
1 -201 -209 0
1 200 -213 0
1 -200 178 0
1 -200 -211 0
1 -200 187 0
1 -200 214 0
1 186 -194 0
1 -186 -210 0
1 186 -199 0
1 186 187 0
1 186 200 0
1 186 212 0
1 187 -210 0
1 187 -208 0
1 187 -199 0
1 -187 -197 0
1 -187 -212 0
1 -187 -186 0
1 190 -210 0
1 190 -211 0
1 190 -200 0
1 -190 -197 0
1 -190 127 0
1 211 201 0
1 211 128 0
1 -211 -197 0
1 -211 212 0
1 199 213 0
1 199 191 0
1 199 -140 0
1 199 159 0
1 199 -215 0
1 199 214 0
1 206 196 0
1 -206 198 0
1 206 208 0
1 206 214 0
1 208 -213 0
1 -208 -186 0
1 -196 -201 0
1 196 -184 0
1 -196 -199 0
1 -214 -200 0
1 -213 201 0
1 213 199 0
1 -213 215 0
1 213 206 0
1 -213 183 0
1 -215 201 0
1 -215 213 0
1 215 208 0
1 215 -199 0
1 215 -181 0
1 215 206 0
